(declare-datatypes ((Action 0)) (((noop) (spend))))
(declare-fun |money[0]| () Int)
(declare-fun |money[1]| () Int)
(declare-fun action () Action)
(define-rec-funs ( ( calc_received ((x!1 Bool)) Int)) ( (ite x!1 5 5)))(assert (= |money[0]| 0))
(assert (>= |money[1]| 0))
(assert (= |money[1]|
   (- (+ |money[0]| ((_ calc_received 0) true)) (ite (= action spend) 10 0))))
(maximize (ite (= action spend) 1 0))
(check-sat)
